c SAT Generator for power-law distributed variable frequencies
c -g u -v 20 -c 91 -k 3 -p 2.750000 -b 3.200000 -f /home/schmidt/Devel/ni-kop-sat/data/ensemble/ruf20-91/ruf20-91-795 -u 1 -U 1 -s 1459702725
p cnf 20 91
-2 5 20 0
-4 -5 -7 0
1 -13 16 0
5 -10 17 0
8 13 -18 0
10 -12 14 0
10 -13 -17 0
9 -14 -15 0
-1 -2 -19 0
3 5 6 0
-1 4 5 0
-11 15 18 0
6 7 17 0
-1 -9 -10 0
-4 -18 -19 0
-9 14 -19 0
-2 -4 19 0
-13 -16 20 0
-1 -10 -15 0
-8 -9 -15 0
-3 -6 10 0
6 7 13 0
14 16 -17 0
2 -8 17 0
-1 12 -18 0
-4 11 12 0
-4 5 -13 0
1 -2 18 0
4 -7 13 0
-5 9 -12 0
1 14 -20 0
-5 -10 -11 0
-2 -8 19 0
-6 13 -16 0
-7 -11 -20 0
1 11 20 0
-2 9 -12 0
3 6 10 0
-15 18 20 0
-3 -10 -14 0
-6 -14 -16 0
-13 -15 -20 0
8 -10 14 0
3 8 13 0
-1 14 -17 0
2 -11 13 0
-9 -15 19 0
3 4 -10 0
-5 15 20 0
-10 11 -14 0
-2 -14 -20 0
-8 -10 15 0
-14 -15 18 0
3 -16 17 0
-13 17 20 0
2 -18 -19 0
-3 -9 19 0
-5 15 18 0
-7 8 15 0
7 -9 16 0
-10 13 -17 0
6 9 10 0
3 17 -19 0
12 -14 17 0
-6 -10 -11 0
3 4 6 0
6 19 -20 0
-1 -3 -16 0
-6 12 -17 0
-5 -10 12 0
8 9 20 0
3 -8 20 0
-2 -5 -19 0
-7 -12 -13 0
11 14 -15 0
-3 -4 -17 0
9 -13 -16 0
8 9 19 0
-5 -6 -18 0
-1 12 17 0
-1 -15 16 0
3 9 -13 0
2 10 -16 0
5 6 11 0
-1 16 20 0
9 -10 13 0
1 -5 20 0
1 -11 -14 0
-3 17 -20 0
6 -9 -10 0
8 -9 19 0
